# Solution for model r3_t9_m0_9
# Finished Task: 3 / 9
# Makespan: 415.0, Total Distance: 122.0, Total Time: 0.0463
# R O S F
0 0 3 0.0 0.0
1 1 5 0.0 0.0
2 2 -1 0.0 0.0
3 0 8 310.0 339.0
4 -1 -1 -1.0 -1.0
5 1 -1 327.0 358.0
6 -1 -1 -1.0 -1.0
7 -1 -1 -1.0 -1.0
8 0 -1 384.0 415.0
9 -1 -1 -1.0 -1.0
10 -1 -1 -1.0 -1.0
11 -1 -1 -1.0 -1.0
